end

pspw 
 mult 1
 #odft
 simulation_cell units angstroms 
 boundary_conditions aperiodic 
  SC 10.0 ngrid 40 40 40 
  end 
 xc pbe96
end

driver
  MAXITER 50
end

set nwpw:minimizer 2
task pspw optimize

dft
  mult 1
  #odft
  XC b3lyp
  iterations 200
end

#Christiansen, Ross and Ermler ARECPs from standard basis set libary "crenbl_ecp"
#All-electron oxygen (aug-cc-pvdz basis)
#Uranium with an ARECP and using the corresponding basis
basis 
  U library crenbl_ecp
  O library aug-cc-pvdz
end

ecp
  U library crenbl_ecp
end

driver
  MAXITER 50
end

task dft optimize ignore #final optimization

